NAME : LPS-n16-m398
COMMENT : (Lartu-Peter-Santi Plot, instance 5598 out of 39200. 16 customers.)
TYPE : CVRP
DIMENSION : 16
EDGE_WEIGHT_TYPE : EUC_2D
CAPACITY : 150
NODE_COORD_SECTION
 1 9 97
 2 51 99
 3 28 0
 4 31 9
 5 77 44
 6 6 28
 7 60 9
 8 89 51
 9 74 53
 10 34 90
 11 60 24
 12 7 36
 13 48 16
 14 66 19
 15 85 7
 16 51 13
DEMAND_SECTION
1 0
2 45
3 89
4 58
5 21
6 70
7 48
8 16
9 99
10 104
11 115
12 132
13 98
14 95
15 28
16 130
DEPOT_SECTION
 1
 -1
EOF
